c clasp version 2.1.1
c Reading from p03.cnf
c Solving...
s SATISFIABLE

c Models        : 1+    
c Time          : 10.355s (Solving: 10.12s 1st Model: 10.12s Unsat: 0.00s)
c CPU Time      : 10.340s
c Choices       : 68952
c Conflicts     : 44590
c Restarts      : 10     (Average: 4459.00 Last: 3400)

c Variables     : 75731  (Eliminated: 22884 Frozen:    0)
c Constraints   : 64069  (Binary: 70.5% Ternary: 26.7% Other:  2.8%)
c Lemmas        : 44590  (Binary:  0.2% Ternary:  0.3% Other: 99.5%)
c   Conflict    : 44590  (Average Length: 213.7) 
c   Loop        : 0      (Average Length: 0.0) 
c   Other       : 0      (Average Length: 0.0)
c   Deleted     : 24595 
